7,0	0,0	19,0	12,8	0,0	0,0	0,0	0,0	0,0	13,8
8,2	8,6	0,0	6,5	5,3	0,0	0,0	19,4	0,0	0,0
0,0	0,0	12,9	0,0	10,4	19,2	0,0	0,0	9,8	0,0
8,0	0,0	10,1	0,0	0,0	0,0	15,9	0,0	0,0	0,0
0,0	5,9	0,0	14,5	17,3	0,0	0,0	14,5	0,0	0,0
0,0	15,8	9,3	0,0	14,2	8,9	0,0	0,0	11,3	0,0
0,0	18,6	0,0	18,5	0,0	0,0	16,6	0,0	0,0	15,6
5,9	0,0	6,7	0,0	0,0	0,0	0,0	0,0	0,0	9,7
0,0	18,5	0,0	16,9	13,5	0,0	0,0	15,2	0,0	0,0
0,0	0,0	13,7	0,0	0,0	6,2	13,3	0,0	0,0	11,3
0,0	8,9	0,0	0,0	14,9	0,0	9,2	0,0	10,1	18,3
7,6	0,0	14,4	0,0	14,8	0,0	15,2	8,9	14,8	0,0
0,0	15,6	0,0	0,0	0,0	8,0	0,0	10,3	18,1	12,6
15,8	13,4	18,1	0,0	0,0	15,5	0,0	10,7	7,2	0,0
18,2	0,0	16,3	0,0	7,4	19,4	19,9	11,5	0,0	0,0
0,0	7,2	0,0	9,6	0,0	17,4	0,0	17,6	0,0	0,0
6,3	0,0	9,8	7,7	17,5	0,0	0,0	11,2	0,0	0,0
0,0	0,0	13,6	0,0	0,0	9,5	8,8	0,0	12,2	17,2
7,8	0,0	0,0	12,5	14,3	6,8	15,9	18,4	0,0	17,7
0,0	11,3	0,0	6,6	0,0	0,0	7,4	0,0	8,7	17,0
									
2,6	4,2	3,0	3,0	3,1	3,3	2,7	4,7	3,3	2,6
